100 100
24 30
14 29
6 48
37 6
45 28
50 9
23 40
36 32
38 49
20 13
31 43
20 28
6 30
45 25
44 11
22 48
12 38
43 14
6 18
9 19
25 24
50 7
41 29
9 1
7 33
40 34
25 45
49 36
36 39
19 29
28 31
19 11
28 47
33 8
50 50
46 36
49 37
32 30
14 32
38 13
15 4
10 10
5 10
8 8
33 25
38 3
29 42
30 18
33 15
8 16
35 5
7 33
32 16
29 19
24 22
9 32
38 12
16 26
8 38
4 38
46 45
28 19
39 46
25 5
21 2
31 9
35 47
47 45
8 43
37 7
26 36
27 43
30 10
4 30
38 28
21 36
30 43
37 12
29 40
5 7
45 40
3 50
6 15
10 19
36 10
40 1
2 29
24 35
39 8
28 27
42 10
49 16
48 15
36 48
30 29
42 22
39 19
37 7
22 36
30 19
